c b=3,c=97
p cnf 13 29
3 -6 0
2 3 -11 0
1 3 -12 0
-3 6 0
2 -3 11 0
2 -3 12 0
2 -5 0
1 2 -10 0
2 -13 0
1 -2 3 11 0
3 -13 0
1 -2 -3 -11 0
-2 -3 13 0
-2 5 0
1 -2 10 0
1 -2 -12 0
1 -4 0
1 -9 0
-1 3 -11 0
2 3 -12 0
-1 -3 11 0
-1 2 10 0
-1 -2 3 12 0
-2 -3 -12 0
-1 -2 -10 0
-1 4 0
-1 9 0
-7 0
-8 0
